a	1	5
3	3	4	4	5	5	2	8	8	
4	4	5	5	1	1	3	9	9	
5	5	1	1	2	2	4	10	10	
1	1	2	2	3	3	5	11	11	
2	2	3	3	4	4	1	12	12	

b	2	5
2	2	3	3	4	4	1	12	12	
3	3	4	4	5	5	2	8	8	
4	4	5	5	1	1	3	9	9	
5	5	1	1	2	2	4	10	10	
1	1	2	2	3	3	5	11	11	

c	3	6
1	1	2	2	3	3	6	11	11	
2	2	3	3	4	4	1	13	13	
3	3	4	4	6	6	2	8	8	
4	4	6	6	1	1	3	9	9	
6	6	1	1	2	2	4	10	10	

d	4	6
6	6	1	1	2	2	4	10	10	
1	1	2	2	3	3	6	11	11	
2	2	3	3	4	4	1	13	13	
3	3	4	4	6	6	2	8	8	
4	4	6	6	1	1	3	9	9	

f	5	6
4	4	6	6	1	1	3	9	9	
6	6	1	1	2	2	4	10	10	
1	1	2	2	3	3	6	11	11	
2	2	3	3	4	4	1	13	13	
3	3	4	4	6	6	2	8	8	

g	6	7
3	3	4	4	7	7	2	1	1	
4	4	7	7	8	8	3	2	2	
7	7	1	1	9	9	4	3	3	
1	1	2	2	10	10	7	4	4	
2	2	3	3	11	11	1	14	14	

h	7	7
2	2	3	3	11	11	1	14	14	
3	3	4	4	7	7	2	1	1	
4	4	7	7	8	8	3	2	2	
7	7	1	1	9	9	4	3	3	
1	1	2	2	10	10	7	4	4	

